kp_lp_files/eil51_n150_bounded-strongly-corr_01-kp.lp
MAXIMIZE
101 z0 + 202 z1 + 404 z2 + 202 z3 + 996 z4 + 1992 z5 + 3984 z6 + 467 z7 + 934 z8 + 1868 z9 + 790 z10 + 790 z11 + 713 z12 + 1426 z13 + 2852 z14 + 974 z15 + 974 z16 + 222 z17 + 444 z18 + 888 z19 + 666 z20 + 586 z21 + 1172 z22 + 1172 z23 + 923 z24 + 923 z25 + 563 z26 + 1126 z27 + 563 z28 + 689 z29 + 1378 z30 + 1378 z31 + 425 z32 + 850 z33 + 1700 z34 + 1275 z35 + 1100 z36 + 2200 z37 + 4400 z38 + 876 z39 + 1752 z40 + 2628 z41 + 223 z42 + 456 z43 + 405 z44 + 810 z45 + 1620 z46 + 405 z47 + 147 z48 + 294 z49 + 588 z50 + 745 z51 + 1490 z52 + 2980 z53 + 1490 z54 + 239 z55 + 347 z56 + 694 z57 + 1388 z58 + 1041 z59 + 311 z60 + 622 z61 + 1244 z62 + 933 z63 + 200 z64 + 400 z65 + 800 z66 + 200 z67 + 727 z68 + 1454 z69 + 1454 z70 + 860 z71 + 1720 z72 + 876 z73 + 1752 z74 + 3504 z75 + 575 z76 + 1150 z77 + 2300 z78 + 1037 z79 + 2074 z80 + 4148 z81 + 1037 z82 + 201 z83 + 402 z84 + 804 z85 + 402 z86 + 381 z87 + 762 z88 + 1524 z89 + 762 z90 + 851 z91 + 1702 z92 + 3404 z93 + 1702 z94 + 630 z95 + 1260 z96 + 2520 z97 + 340 z98 + 680 z99 + 680 z100 + 348 z101 + 696 z102 + 1044 z103 + 868 z104 + 131 z105 + 262 z106 + 131 z107 + 713 z108 + 1426 z109 + 2852 z110 + 713 z111 + 981 z112 + 1962 z113 + 1962 z114 + 467 z115 + 934 z116 + 1868 z117 + 467 z118 + 812 z119 + 510 z120 + 1020 z121 + 2040 z122 + 510 z123 + 257 z124 + 514 z125 + 1028 z126 + 771 z127 + 924 z128 + 342 z129 + 572 z130 + 1144 z131 + 1716 z132 + 822 z133 + 1644 z134 + 3288 z135 + 875 z136 + 875 z137 + 471 z138 + 942 z139 + 1884 z140 + 437 z141 + 874 z142 + 437 z143 + 985 z144 + 1970 z145 + 3940 z146 + 1970 z147 + 304 z148 + 608 z149
SUBJECT TO
1 z0 + 2 z1 + 4 z2 + 2 z3 + 896 z4 + 1792 z5 + 3584 z6 + 367 z7 + 734 z8 + 1468 z9 + 690 z10 + 690 z11 + 613 z12 + 1226 z13 + 2452 z14 + 874 z15 + 874 z16 + 122 z17 + 244 z18 + 488 z19 + 366 z20 + 486 z21 + 972 z22 + 972 z23 + 823 z24 + 823 z25 + 463 z26 + 926 z27 + 463 z28 + 589 z29 + 1178 z30 + 1178 z31 + 325 z32 + 650 z33 + 1300 z34 + 975 z35 + 1000 z36 + 2000 z37 + 4000 z38 + 776 z39 + 1552 z40 + 2328 z41 + 123 z42 + 356 z43 + 305 z44 + 610 z45 + 1220 z46 + 305 z47 + 47 z48 + 94 z49 + 188 z50 + 645 z51 + 1290 z52 + 2580 z53 + 1290 z54 + 139 z55 + 247 z56 + 494 z57 + 988 z58 + 741 z59 + 211 z60 + 422 z61 + 844 z62 + 633 z63 + 100 z64 + 200 z65 + 400 z66 + 100 z67 + 627 z68 + 1254 z69 + 1254 z70 + 760 z71 + 1520 z72 + 776 z73 + 1552 z74 + 3104 z75 + 475 z76 + 950 z77 + 1900 z78 + 937 z79 + 1874 z80 + 3748 z81 + 937 z82 + 101 z83 + 202 z84 + 404 z85 + 202 z86 + 281 z87 + 562 z88 + 1124 z89 + 562 z90 + 751 z91 + 1502 z92 + 3004 z93 + 1502 z94 + 530 z95 + 1060 z96 + 2120 z97 + 240 z98 + 480 z99 + 480 z100 + 248 z101 + 496 z102 + 744 z103 + 768 z104 + 31 z105 + 62 z106 + 31 z107 + 613 z108 + 1226 z109 + 2452 z110 + 613 z111 + 881 z112 + 1762 z113 + 1762 z114 + 367 z115 + 734 z116 + 1468 z117 + 367 z118 + 712 z119 + 410 z120 + 820 z121 + 1640 z122 + 410 z123 + 157 z124 + 314 z125 + 628 z126 + 471 z127 + 824 z128 + 242 z129 + 472 z130 + 944 z131 + 1416 z132 + 722 z133 + 1444 z134 + 2888 z135 + 775 z136 + 775 z137 + 371 z138 + 742 z139 + 1484 z140 + 337 z141 + 674 z142 + 337 z143 + 885 z144 + 1770 z145 + 3540 z146 + 1770 z147 + 204 z148 + 408 z149 <= 12347
BINARIES
z0
z1
z2
z3
z4
z5
z6
z7
z8
z9
z10
z11
z12
z13
z14
z15
z16
z17
z18
z19
z20
z21
z22
z23
z24
z25
z26
z27
z28
z29
z30
z31
z32
z33
z34
z35
z36
z37
z38
z39
z40
z41
z42
z43
z44
z45
z46
z47
z48
z49
z50
z51
z52
z53
z54
z55
z56
z57
z58
z59
z60
z61
z62
z63
z64
z65
z66
z67
z68
z69
z70
z71
z72
z73
z74
z75
z76
z77
z78
z79
z80
z81
z82
z83
z84
z85
z86
z87
z88
z89
z90
z91
z92
z93
z94
z95
z96
z97
z98
z99
z100
z101
z102
z103
z104
z105
z106
z107
z108
z109
z110
z111
z112
z113
z114
z115
z116
z117
z118
z119
z120
z121
z122
z123
z124
z125
z126
z127
z128
z129
z130
z131
z132
z133
z134
z135
z136
z137
z138
z139
z140
z141
z142
z143
z144
z145
z146
z147
z148
z149
END