kp_sol_files/eil51_n150_bounded-strongly-corr_01-kp.sol
# Objective value = 21247
z0 1
z1 1
z2 1
z3 1
z4 0
z5 0
z6 0
z7 0
z8 0
z9 0
z10 0
z11 0
z12 0
z13 0
z14 0
z15 0
z16 0
z17 1
z18 1
z19 1
z20 1
z21 0
z22 0
z23 0
z24 0
z25 0
z26 0
z27 0
z28 0
z29 0
z30 0
z31 0
z32 0
z33 0
z34 0
z35 0
z36 0
z37 0
z38 0
z39 0
z40 0
z41 0
z42 1
z43 0
z44 0
z45 0
z46 0
z47 0
z48 1
z49 1
z50 1
z51 0
z52 0
z53 0
z54 0
z55 1
z56 0
z57 1
z58 1
z59 1
z60 0
z61 1
z62 1
z63 1
z64 1
z65 1
z66 1
z67 1
z68 0
z69 0
z70 0
z71 0
z72 0
z73 0
z74 0
z75 0
z76 0
z77 0
z78 0
z79 0
z80 0
z81 0
z82 0
z83 1
z84 1
z85 1
z86 1
z87 0
z88 0
z89 0
z90 1
z91 0
z92 0
z93 0
z94 0
z95 0
z96 0
z97 0
z98 1
z99 1
z100 1
z101 0
z102 1
z103 1
z104 0
z105 1
z106 1
z107 1
z108 0
z109 0
z110 0
z111 0
z112 0
z113 0
z114 0
z115 0
z116 0
z117 0
z118 0
z119 0
z120 0
z121 0
z122 0
z123 0
z124 1
z125 1
z126 1
z127 1
z128 0
z129 0
z130 0
z131 0
z132 0
z133 0
z134 0
z135 0
z136 0
z137 0
z138 0
z139 0
z140 0
z141 0
z142 0
z143 0
z144 0
z145 0
z146 0
z147 0
z148 0
z149 0
